NAME : P-n60-k15.569434.tour
COMMENT : Length = 569434
COMMENT : Found by LKH [Keld Helsgaun] Sun Dec 17 22:37:39 2017
TYPE : TOUR
DIMENSION : 74
TOUR_SECTION
1
2
44
42
43
23
65
49
22
48
37
61
18
4
45
33
62
7
34
24
57
66
53
28
14
55
20
73
5
46
16
58
74
31
3
29
69
27
13
40
10
71
30
6
38
21
67
52
17
50
25
19
70
54
15
60
68
41
51
26
56
64
8
12
39
63
59
11
32
72
35
47
9
36
-1
EOF
